Name: 2,3-di-O-Phytanyl-sn-glycerol acetate
Synon: $:00in-source
DB#: UO000003
InChIKey: PHHRZFRBFLDDTQ-UHFFFAOYSA-N
Spectrum_type: MS1
Instrument_type: EI-B
Instrument: JMS DX-300/JMS-3500 data system, Japan Electron Optics Laboratory, Japan
Ion_mode: P
Formula: C45H90O4
ExactMass: 694.68391136
Comments: "compound class=Glycerolipids; Diradylglycerols; Dialkylglycerols" "SMILES=C(CCC(C)CCOCC(OCCC(CCCC(CCCC(CCCC(C)C)C)C)C)COC(C)=O)C(CCCC(C)CCCC(C)C)C" "cas=38607-78-2" "pubchem cid=92036146" "InChI=InChI=1S/C45H90O4/c1-36(2)18-12-20-38(5)22-14-24-40(7)26-16-28-42(9)30-32-47-34-45(35-49-44(11)46)48-33-31-43(10)29-17-27-41(8)25-15-23-39(6)21-13-19-37(3)4/h36-43,45H,12-35H2,1-11H3" "computed SMILES=O=C(OCC(OCCC(C)CCCC(C)CCCC(C)CCCC(C)C)COCCC(C)CCCC(C)CCCC(C)CCCC(C)C)C" "accession=UO000003" "date=2016.01.19 (Created 2009.05.29, modified 2011.05.06)" "author=Hiroyuki Morii, Department of Chemistry, University of Occupational and Environmental Health" "license=CC BY-SA" "publication=Morii, H., Nishihara, M., Ohga, M., and Koga, Y. 1986. A diphytanyl ether analog of phosphatidylserine from a methanogenic bacterium, Methanobrevibacter arboriphilus. J Lipid Res. 27: 724-730." "comment=[Analytical] Ionizing Curr 300 uA, Chamber Temp 200 C, Accel Volt 3KV, Ion Multi 1.0 KV," "exact mass=694.68391" "ionization potential=30 eV" "scanning=5 Sec" "source temperature=200 C" "ion type=[M]+*" "computed spectral entropy=3.5576808964381104" "computed normalized entropy=0.805116366985707" "SPLASH=splash10-053r-9506000000-ab5f3c7ce6a8c2f1080e" "submitter=submitter = Hiroyuki Morii (University of Occupational and Enviromental Health)" "MoNA Rating=3.75"
Num Peaks: 83
41.0 2.556957
43.0 8.565794
44.0 2.869445
55.0 8.802347
57.0 22.494379
59.0 43.875768
60.0 7.683194
69.0 10.767922
70.0 4.677185
71.0 22.561171
72.0 25.345735
85.0 17.990136
87.0 11.156147
97.0 12.096394
99.0 12.715208
100.0 10.537333
101.0 4.759084
103.0 3.466989
105.0 8.984433
110.0 2.629711
111.0 11.062122
112.0 3.937113
113.0 10.834713
114.0 3.937113
117.0 5.620414
123.0 6.761036
124.0 3.682272
125.0 8.304990
126.0 4.846946
127.0 9.839800
128.0 3.515492
139.0 4.665059
140.0 2.056419
141.0 7.461749
153.0 3.879465
155.0 5.490012
167.0 2.020041
169.0 4.495099
183.0 3.800548
197.0 4.076659
211.0 2.059401
236.0 3.096853
256.0 2.089815
257.0 1.998772
278.0 4.759084
280.0 2.086833
281.0 5.857166
353.0 0.812827
354.0 0.673281
355.0 0.397170
357.0 0.415458
367.0 0.163599
368.0 2.168732
369.0 1.097883
370.0 0.184869
378.0 0.163599
379.0 0.188050
380.0 0.236553
381.0 1.695427
382.0 1.267843
383.0 100.000000
384.0 27.402352
385.0 4.455740
386.0 0.685407
394.0 0.439710
395.0 1.334436
396.0 1.228285
397.0 7.946980
398.0 2.614604
399.0 0.582238
409.0 0.196995
410.0 0.291020
412.0 0.257823
415.0 2.475058
416.0 0.906852
620.0 0.194013
634.0 2.699485
635.0 1.295077
636.0 0.460980
679.0 0.306326
680.0 0.175924
693.0 0.172743
694.0 0.251660

Name: Brevicompanine C
Synon: $:00in-source
DB#: TT000166
InChIKey: GFKUCJKLCHSSJN-JRYVEOFUSA-N
Spectrum_type: MS1
Instrument_type: EI-B
Instrument: Hitachi M80 mass spectrometers
Ion_mode: P
Formula: C21H27N3O2
ExactMass: 353.210327104
Comments: "compound class=Natural Product; Diketopiperazine" "SMILES=CC(C)[C@@H]1C(=O)N2[C@@H](C[C@@]3([C@H]2NC4=CC=CC=C43)C(C)(C)C=C)C(=O)N1" "pubchem cid=5325980" "InChI=InChI=1S/C21H27N3O2/c1-6-20(4,5)21-11-15-17(25)23-16(12(2)3)18(26)24(15)19(21)22-14-10-8-7-9-13(14)21/h6-10,12,15-16,19,22H,1,11H2,2-5H3,(H,23,25)/t15-,16+,19-,21+/m0/s1" "computed SMILES=O=C1N2C(C(O)=NC1C(C)C)CC3(C=4C=CC=CC4NC23)C(C=C)(C)C" "accession=TT000166" "date=2016.01.19 (Created 2008.10.21, modified 2011.05.06)" "author=Kimura Y, Sawada A, Faculty of Agriculture, Tottori University" "license=CC BY-SA" "publication=Kimura, Y., Sawada, A., Kuramata, M., Kusano, M., Fujioka, S., Kawano, T., and Shimada, A. 2005. Brevicompanine C, Cyclo-(D-Ile-L-Trp), and Cyclo-(D-Leu-L-Trp), Plant Growth Regulators from Penicillium brevi-compactum. J. Nat. Prod., 68 (2):237 -239. doi:10.1021/np040178p" "comment=[Analytical] Sample was directly injected" "exact mass=353.21033" "ionization potential=70 eV" "computed spectral entropy=2.634548956636915" "computed normalized entropy=0.6358830042033121" "SPLASH=splash10-001i-1592000000-ae7e57ca2b2b3901637b" "submitter=submitter = Yasuo Kimura (Faculty of Agriculture, Tottori University)" "MoNA Rating=3.75"
Num Peaks: 63
27.0 0.300300
28.0 5.205205
32.0 1.401401
39.0 0.400400
41.0 3.703704
43.0 1.101101
44.0 0.900901
50.0 0.200200
55.0 1.201201
57.0 0.200200
60.0 0.400400
69.0 2.602603
70.0 0.300300
72.0 3.703704
77.0 0.900901
85.0 0.800801
102.0 0.300300
103.0 1.401401
115.0 0.800801
116.0 0.400400
117.0 0.400400
128.0 0.800801
129.0 1.401401
130.0 20.920921
131.0 2.302302
132.0 1.201201
140.0 0.200200
142.0 0.300300
143.0 0.900901
149.0 0.300300
154.0 0.500501
155.0 1.201201
156.0 2.202202
157.0 25.725726
158.0 5.005005
159.0 0.900901
167.0 1.201201
168.0 0.600601
169.0 0.600601
170.0 0.900901
171.0 0.200200
182.0 0.200200
184.0 1.301301
185.0 5.105105
186.0 0.600601
196.0 0.200200
198.0 1.801802
199.0 0.300300
224.0 0.300300
241.0 0.900901
256.0 12.112112
257.0 2.102102
268.0 0.300300
283.0 2.602603
284.0 100.000000
285.0 19.719720
286.0 2.302302
352.0 0.700701
353.0 25.125125
354.0 6.206206
355.0 1.001001
392.0 0.300300
410.0 0.300300

Name: 2,3-di-O-Phytanyl-sn-glycerol-1-phosphoserine
Synon: archaetidylserine
Synon: $:00in-source
DB#: UO000002
InChIKey: REWAKYJADCBFMU-UFSSTKFDSA-N
Spectrum_type: MS1
Instrument_type: EI-B
Instrument: JMS DX-300/JMS-3500 data system, Japan Electron Optics Laboratory, Japan
Ion_mode: P
Formula: C46H94NO8P
ExactMass: 819.671705598
Comments: "compound class=Glycerophospholipids; Glycerophosphoserines; Dialkylglycerophosphoserines" "SMILES=C[C@H](CCC[C@H](C)CCCC(C)C)CCC[C@@H](C)CCOC[C@H](COP(=O)(O)OC[C@H](C(=O)O)N)OCC[C@H](C)CCC[C@H](C)CCC[C@H](C)CCCC(C)C" "cas=105662-26-8" "lipidbank=EEL3026" "pubchem cid=134763479" "InChI=InChI=1S/C46H94NO8P/c1-36(2)17-11-19-38(5)21-13-23-40(7)25-15-27-42(9)29-31-52-33-44(34-54-56(50,51)55-35-45(47)46(48)49)53-32-30-43(10)28-16-26-41(8)24-14-22-39(6)20-12-18-37(3)4/h36-45H,11-35,47H2,1-10H3,(H,48,49)(H,50,51)/t38-,39-,40-,41-,42-,43-,44-,45-/m1/s1" "computed SMILES=O=C(O)C(N)COP(=O)(O)OCC(OCCC(C)CCCC(C)CCCC(C)CCCC(C)C)COCCC(C)CCCC(C)CCCC(C)CCCC(C)C" "accession=UO000002" "date=2016.01.19 (Created 2009.05.29, modified 2011.05.06)" "author=Hiroyuki Morii, Department of Chemistry, University of Occupational and Environmental Health" "license=CC BY-SA" "publication=Morii, H., Nishihara, M., Ohga, M., and Koga, Y. 1986. A diphytanyl ether analog of phosphatidylserine from a methanogenic bacterium, Methanobrevibacter arboriphilus. J Lipid Res. 27: 724-730." "comment=Ammonium salt of the compound was analyzed" "comment=[Analytical] Ionizing Curr 300 uA, Chamber Temp 250 C, Accel Volt 3KV, Ion Multi 1.0 KV," "exact mass=819.67171" "ionization potential=30 eV" "scanning=5 Sec" "source temperature=320 C" "ion type=[M]+*" "computed spectral entropy=3.8330896371204033" "computed normalized entropy=0.9440077418066211" "SPLASH=splash10-05gi-9611001000-5e7663b41cf47681770e" "submitter=submitter = Hiroyuki Morii (University of Occupational and Enviromental Health)" "MoNA Rating=3.75"
Num Peaks: 58
36.0 6.955322
43.0 22.122002
55.0 24.852536
56.0 34.310693
57.0 97.371518
69.0 61.078341
70.0 62.939158
71.0 100.000000
74.0 21.798790
81.0 26.112553
82.0 16.500323
83.0 61.473047
84.0 26.919305
85.0 74.551070
95.0 14.515849
96.0 25.544302
97.0 63.880511
98.0 16.812591
99.0 53.574241
111.0 61.104352
112.0 23.967611
113.0 43.803673
123.0 42.383045
124.0 33.143916
125.0 71.649265
126.0 51.496528
127.0 42.704126
139.0 17.530509
140.0 33.165521
141.0 33.510480
153.0 15.274986
155.0 23.202077
169.0 18.504268
182.0 13.470455
183.0 22.774681
196.0 18.840557
197.0 23.256230
211.0 10.752997
278.0 46.427891
279.0 31.324318
280.0 32.356637
281.0 20.406446
296.0 22.508038
297.0 8.599384
309.0 5.027275
325.0 39.771761
326.0 10.091506
340.0 19.011828
341.0 8.597110
343.0 34.620829
344.0 8.532013
354.0 7.315347
373.0 18.840557
374.0 5.979430
383.0 9.063451
634.0 64.023640
635.0 30.203024
636.0 7.052968
