Name: 2,3-di-O-Phytanyl-sn-glycerol acetate
Synon: $:00in-source
DB#: UO000003
InChIKey: PHHRZFRBFLDDTQ-UHFFFAOYSA-N
Spectrum_type: MS1
Instrument_type: EI-B
Instrument: JMS DX-300/JMS-3500 data system, Japan Electron Optics Laboratory, Japan
Ion_mode: P
Formula: C45H90O4
ExactMass: 694.68391136
Comments: "compound class=Glycerolipids; Diradylglycerols; Dialkylglycerols" "SMILES=C(CCC(C)CCOCC(OCCC(CCCC(CCCC(CCCC(C)C)C)C)C)COC(C)=O)C(CCCC(C)CCCC(C)C)C" "cas=38607-78-2" "pubchem cid=92036146" "InChI=InChI=1S/C45H90O4/c1-36(2)18-12-20-38(5)22-14-24-40(7)26-16-28-42(9)30-32-47-34-45(35-49-44(11)46)48-33-31-43(10)29-17-27-41(8)25-15-23-39(6)21-13-19-37(3)4/h36-43,45H,12-35H2,1-11H3" "computed SMILES=O=C(OCC(OCCC(C)CCCC(C)CCCC(C)CCCC(C)C)COCCC(C)CCCC(C)CCCC(C)CCCC(C)C)C" "accession=UO000003" "date=2016.01.19 (Created 2009.05.29, modified 2011.05.06)" "author=Hiroyuki Morii, Department of Chemistry, University of Occupational and Environmental Health" "license=CC BY-SA" "publication=Morii, H., Nishihara, M., Ohga, M., and Koga, Y. 1986. A diphytanyl ether analog of phosphatidylserine from a methanogenic bacterium, Methanobrevibacter arboriphilus. J Lipid Res. 27: 724-730." "comment=[Analytical] Ionizing Curr 300 uA, Chamber Temp 200 C, Accel Volt 3KV, Ion Multi 1.0 KV," "exact mass=694.68391" "ionization potential=30 eV" "scanning=5 Sec" "source temperature=200 C" "ion type=[M]+*" "computed spectral entropy=3.5576808964381104" "computed normalized entropy=0.805116366985707" "SPLASH=splash10-053r-9506000000-ab5f3c7ce6a8c2f1080e" "submitter=submitter = Hiroyuki Morii (University of Occupational and Enviromental Health)" "MoNA Rating=3.75"
Num Peaks: 83
41.0 2.556957
43.0 8.565794
44.0 2.869445
55.0 8.802347
57.0 22.494379
59.0 43.875768
60.0 7.683194
69.0 10.767922
70.0 4.677185
71.0 22.561171
72.0 25.345735
85.0 17.990136
87.0 11.156147
97.0 12.096394
99.0 12.715208
100.0 10.537333
101.0 4.759084
103.0 3.466989
105.0 8.984433
110.0 2.629711
111.0 11.062122
112.0 3.937113
113.0 10.834713
114.0 3.937113
117.0 5.620414
123.0 6.761036
124.0 3.682272
125.0 8.304990
126.0 4.846946
127.0 9.839800
128.0 3.515492
139.0 4.665059
140.0 2.056419
141.0 7.461749
153.0 3.879465
155.0 5.490012
167.0 2.020041
169.0 4.495099
183.0 3.800548
197.0 4.076659
211.0 2.059401
236.0 3.096853
256.0 2.089815
257.0 1.998772
278.0 4.759084
280.0 2.086833
281.0 5.857166
353.0 0.812827
354.0 0.673281
355.0 0.397170
357.0 0.415458
367.0 0.163599
368.0 2.168732
369.0 1.097883
370.0 0.184869
378.0 0.163599
379.0 0.188050
380.0 0.236553
381.0 1.695427
382.0 1.267843
383.0 100.000000
384.0 27.402352
385.0 4.455740
386.0 0.685407
394.0 0.439710
395.0 1.334436
396.0 1.228285
397.0 7.946980
398.0 2.614604
399.0 0.582238
409.0 0.196995
410.0 0.291020
412.0 0.257823
415.0 2.475058
416.0 0.906852
620.0 0.194013
634.0 2.699485
635.0 1.295077
636.0 0.460980
679.0 0.306326
680.0 0.175924
693.0 0.172743
694.0 0.251660

